137564
24,1,87,44,66,59,10,27,28,58,76,89,93,12,23,92,8,97,55,29,30,5,52,65,31,98,13,88,69,81,19,42,106,9,57,80,83,34,26,50,68,99,100,51,35,103,47,14,61,4,15,75,63,32,7,53,84,33,82,72,45,25,86,46,77,6,40,56,20,16,64,90,17,21,22,62,2,73,48,85,11,41,67,104,38,95,54,71,36,39,37,49,18,70,101,105,3,94,78,96,60,91,79,43,102,74,24